NAME : 31pr152.pid4969.gtsp.166481555.tour
COMMENT : Length = 166481555
COMMENT : Found by LKH [Keld Helsgaun] Sun Mar  9 12:57:09 2025
TYPE : TOUR
DIMENSION : 152
TOUR_SECTION
1
16
35
51
73
74
75
76
47
48
49
50
92
93
94
95
77
78
91
96
115
116
72
45
46
52
53
54
69
70
71
90
97
98
99
79
114
80
89
100
113
123
124
125
126
127
128
150
151
152
121
122
129
130
131
132
147
148
149
120
133
134
144
145
146
119
135
136
118
137
138
139
140
141
142
143
117
110
85
108
109
84
61
62
63
64
41
42
58
59
60
83
86
105
106
107
87
104
111
112
82
88
101
102
103
66
67
68
81
44
55
56
43
57
65
18
8
9
17
10
19
20
21
40
7
11
22
23
39
6
12
24
25
26
5
13
27
28
29
38
4
14
30
31
3
34
37
2
15
32
33
36
-1
EOF
